(set-info :smt-lib-version 2.6)
(set-logic QF_UFLRA)
(set-info :source |
MathSat group

|)
(set-info :category "random")
(set-info :status unsat)
(declare-fun f0_1 (Real) Real)
(declare-fun f0_2 (Real Real) Real)
(declare-fun f0_3 (Real Real Real) Real)
(declare-fun f0_4 (Real Real Real Real) Real)
(declare-fun f1_1 (Real) Real)
(declare-fun f1_2 (Real Real) Real)
(declare-fun f1_3 (Real Real Real) Real)
(declare-fun f1_4 (Real Real Real Real) Real)
(declare-fun x0 () Real)
(declare-fun x1 () Real)
(declare-fun x2 () Real)
(declare-fun x3 () Real)
(declare-fun x4 () Real)
(declare-fun x5 () Real)
(declare-fun x6 () Real)
(declare-fun x7 () Real)
(declare-fun x8 () Real)
(declare-fun x9 () Real)
(declare-fun x10 () Real)
(declare-fun x11 () Real)
(declare-fun x12 () Real)
(declare-fun x13 () Real)
(declare-fun x14 () Real)
(declare-fun x15 () Real)
(declare-fun x16 () Real)
(declare-fun x17 () Real)
(declare-fun x18 () Real)
(declare-fun x19 () Real)
(declare-fun x20 () Real)
(declare-fun x21 () Real)
(declare-fun x22 () Real)
(declare-fun x23 () Real)
(declare-fun x24 () Real)
(declare-fun x25 () Real)
(declare-fun x26 () Real)
(declare-fun x27 () Real)
(declare-fun x28 () Real)
(declare-fun x29 () Real)
(declare-fun P0 () Bool)
(declare-fun P1 () Bool)
(declare-fun P2 () Bool)
(declare-fun P3 () Bool)
(declare-fun P4 () Bool)
(declare-fun P5 () Bool)
(declare-fun P6 () Bool)
(declare-fun P7 () Bool)
(declare-fun P8 () Bool)
(declare-fun P9 () Bool)
(declare-fun P10 () Bool)
(declare-fun P11 () Bool)
(declare-fun P12 () Bool)
(declare-fun P13 () Bool)
(declare-fun P14 () Bool)
(declare-fun P15 () Bool)
(declare-fun P16 () Bool)
(declare-fun P17 () Bool)
(declare-fun P18 () Bool)
(declare-fun P19 () Bool)
(declare-fun P20 () Bool)
(declare-fun P21 () Bool)
(declare-fun P22 () Bool)
(declare-fun P23 () Bool)
(declare-fun P24 () Bool)
(declare-fun P25 () Bool)
(declare-fun P26 () Bool)
(declare-fun P27 () Bool)
(declare-fun P28 () Bool)
(declare-fun P29 () Bool)
(assert (let ((?v_140 (f0_2 x11 x7)) (?v_10 (f1_2 x27 x26)) (?v_39 (f0_1 x7)) (?v_202 (f0_1 x4)) (?v_311 (f0_2 x14 x21)) (?v_69 (f1_2 x21 x1)) (?v_13 (+ (- (* 13 x23) (* 13 x13)) (* 6 x8))) (?v_5 (f0_1 x19)) (?v_6 (f1_1 x22)) (?v_67 (* 18 x13))) (let ((?v_28 (- (- (* 23 x10) ?v_67) (* 27 x5))) (?v_175 (- (- (* 26 x17) (* 23 x8)) (* 2 x20))) (?v_3 (f0_1 x12)) (?v_32 (- (+ (* 19 x16) (* 5 ?v_13)) (* 17 x2))) (?v_12 (- (- (* 22 x11) (* 6 x27)) (* 13 x6))) (?v_111 (f0_2 x23 x0)) (?v_53 (f1_1 x6))) (let ((?v_14 (f1_2 ?v_12 x19)) (?v_234 (- (- (* 10 x9) (* 22 x5)) (* 29 x26))) (?v_35 (f1_2 ?v_3 ?v_28)) (?v_26 (f0_1 x13)) (?v_29 (f1_2 x7 x9)) (?v_95 (f1_1 x26)) (?v_15 (f0_2 x13 x19)) (?v_65 (f0_2 x3 x5)) (?v_57 (f0_1 x24)) (?v_92 (f0_1 x28)) (?v_72 (f0_1 x5)) (?v_45 (f0_2 x26 x21)) (?v_73 (f0_1 x16)) (?v_118 (f1_2 x7 x3)) (?v_2 (f0_1 x29)) (?v_36 (f0_2 x8 x1)) (?v_4 (f0_2 x14 x16)) (?v_24 (f0_2 x28 ?v_3)) (?v_88 (f0_2 x21 x20)) (?v_169 (f1_2 (f1_1 x19) (f1_1 x16)))) (let ((?v_212 (f1_2 (f1_2 x21 ?v_29) ?v_4)) (?v_93 (f1_2 ?v_32 x1)) (?v_49 (f0_2 ?v_5 ?v_3)) (?v_58 (f1_2 x5 x9)) (?v_71 (f1_1 x14)) (?v_30 (f0_2 (f0_2 ?v_29 ?v_6) (f0_1 x6))) (?v_108 (< ?v_45 1)) (?v_33 (< ?v_5 23)) (?v_132 (< ?v_57 0)) (?v_214 (= (+ (- (* 10 x11) (* 25 x5)) (* 12 x22)) ?v_2)) (?v_207 (< ?v_53 25)) (?v_273 (< ?v_35 2))) (let ((?v_119 (= ?v_30 x6)) (?v_0 (< ?v_73 19)) (?v_216 (= ?v_71 ?v_72)) (?v_263 (< x17 9)) (?v_23 (< ?v_2 26)) (?v_275 (< ?v_111 3)) (?v_313 (< ?v_111 8)) (?v_148 (= (f1_2 ?v_69 x8) ?v_2)) (?v_184 (< ?v_175 4)) (?v_343 (< ?v_311 0)) (?v_103 (< (f0_2 ?v_5 x24) 27)) (?v_186 (< (f0_1 x14) 3)) (?v_163 (< x25 12)) (?v_11 (< x24 17)) (?v_310 (< ?v_6 23)) (?v_342 (= x11 x14)) (?v_123 (= ?v_169 ?v_13)) (?v_228 (< ?v_202 27)) (?v_99 (< x8 7)) (?v_44 (< ?v_5 24)) (?v_143 (< ?v_88 23)) (?v_75 (< ?v_212 21)) (?v_167 (= ?v_30 ?v_69)) (?v_136 (< ?v_39 12)) (?v_218 (< ?v_140 6)) (?v_321 (< ?v_12 17)) (?v_51 (< ?v_35 14)) (?v_249 (< ?v_3 4)) (?v_193 (< x25 11)) (?v_379 (< ?v_88 8)) (?v_121 (< ?v_111 24)) (?v_247 (= x14 ?v_3)) (?v_292 (= (f1_1 x9) ?v_65)) (?v_370 (< (f1_2 x18 x1) 9)) (?v_38 (< x15 6)) (?v_97 (< (f0_1 x3) 13)) (?v_68 (< ?v_118 6)) (?v_98 (< ?v_14 12)) (?v_210 (< x22 28)) (?v_62 (= (f1_2 x23 x28) ?v_58)) (?v_240 (< ?v_13 0)) (?v_230 (< ?v_92 0)) (?v_244 (= x19 x3)) (?v_223 (= ?v_93 (f0_1 x11))) (?v_264 (= ?v_30 x22)) (?v_208 (< x16 29)) (?v_42 (< ?v_93 29)) (?v_79 (< x17 28)) (?v_323 (< x14 17)) (?v_138 (= ?v_140 ?v_36)) (?v_377 (< ?v_5 12)) (?v_90 (= ?v_6 x20)) (?v_85 (< ?v_3 9)) (?v_335 (< (f1_2 x27 x29) 13)) (?v_135 (= ?v_65 x25)) (?v_309 (= x2 ?v_72)) (?v_101 (< ?v_53 8)) (?v_107 (= ?v_71 ?v_311)) (?v_211 (= x1 ?v_28))) (let ((?v_159 (not ?v_335)) (?v_56 (not ?v_0)) (?v_83 (not P1)) (?v_373 (not P17)) (?v_357 (not ?v_90)) (?v_242 (not P28)) (?v_130 (not P21)) (?v_76 (not ?v_33)) (?v_225 (not P11)) (?v_192 (not ?v_11)) (?v_48 (not ?v_193)) (?v_40 (not ?v_207)) (?v_187 (not ?v_23)) (?v_102 (not ?v_211)) (?v_279 (not ?v_119)) (?v_147 (not ?v_273)) (?v_358 (not ?v_138)) (?v_160 (not P22)) (?v_224 (not P18)) (?v_43 (not ?v_247)) (?v_339 (not ?v_42)) (?v_301 (not ?v_275)) (?v_152 (not ?v_370)) (?v_364 (not P7)) (?v_177 (not ?v_38)) (?v_74 (not ?v_51)) (?v_285 (not ?v_101)) (?v_86 (not P29)) (?v_59 (not ?v_68)) (?v_286 (not ?v_62)) (?v_78 (not P27)) (?v_151 (not ?v_249)) (?v_110 (not P2)) (?v_227 (not P26)) (?v_201 (not ?v_75)) (?v_334 (not ?v_132)) (?v_185 (not ?v_240)) (?v_241 (not P14)) (?v_114 (not ?v_292)) (?v_174 (not P3)) (?v_191 (not P4)) (?v_222 (not ?v_85)) (?v_291 (not P0)) (?v_127 (not ?v_379)) (?v_150 (not ?v_97)) (?v_332 (not P23)) (?v_113 (not ?v_98)) (?v_156 (not P24)) (?v_205 (not ?v_103)) (?v_181 (not ?v_107)) (?v_272 (not ?v_121)) (?v_268 (not P15)) (?v_161 (not ?v_310)) (?v_141 (not ?v_79)) (?v_215 (not ?v_143)) (?v_270 (not ?v_263)) (?v_330 (not P16)) (?v_353 (not ?v_136)) (?v_246 (not ?v_321)) (?v_262 (not ?v_163)) (?v_376 (not ?v_167)) (?v_239 (not P6)) (?v_253 (not P13)) (?v_183 (not P10)) (?v_324 (not ?v_108)) (?v_337 (not ?v_135)) (?v_299 (not ?v_184)) (?v_252 (not ?v_148)) (?v_196 (not ?v_44)) (?v_220 (not P19)) (?v_289 (not ?v_99)) (?v_329 (not ?v_208)) (?v_350 (not ?v_210)) (?v_336 (not ?v_186)) (?v_362 (not P5)) (?v_331 (not ?v_123)) (?v_380 (not ?v_228)) (?v_295 (not ?v_230)) (?v_352 (not ?v_218)) (?v_254 (not P12)) (?v_290 (not ?v_323)) (?v_276 (not ?v_264)) (?v_282 (not ?v_214)) (?v_308 (not P20)) (?v_347 (not P8)) (?v_305 (not ?v_342)) (?v_369 (not ?v_244)) (?v_300 (not P9)) (?v_372 (not ?v_313)) (?v_375 (not ?v_309)) (?v_328 (not ?v_343)) (?v_344 (not ?v_377)) (?v_366 (not ?v_216)) (?v_355 (not ?v_223)) (?v_367 (not P25)) (?v_126 (+ (- (* (- 5) x21) (* 29 x5)) (* 4 x20)))) (let ((?v_9 (= ?v_57 ?v_126)) (?v_125 (+ (* (- 18) x12) (* 8 x22) (* 22 ?v_35)))) (let ((?v_1 (f0_2 ?v_12 ?v_125))) (let ((?v_144 (= ?v_1 ?v_2)) (?v_22 (< ?v_72 (- 5)))) (let ((?v_266 (not ?v_22)) (?v_17 (< ?v_1 (- 28))) (?v_346 (< ?v_4 (- 11)))) (let ((?v_7 (not ?v_346)) (?v_19 (- (+ (* (- 22) x1) (* 19 x21)) (* 22 x23)))) (let ((?v_31 (< ?v_19 (- 26))) (?v_47 (< ?v_32 (- 25))) (?v_16 (< x17 (- 4))) (?v_94 (< ?v_49 (- 11)))) (let ((?v_66 (not ?v_94)) (?v_25 (+ (* (- 10) x11) (* 21 x14) (* 3 x1)))) (let ((?v_84 (< ?v_25 (- 16)))) (let ((?v_8 (not ?v_84)) (?v_231 (< ?v_45 (- 12)))) (let ((?v_18 (not ?v_231)) (?v_149 (< ?v_4 (- 4))) (?v_170 (not ?v_9)) (?v_20 (< ?v_234 (- 7))) (?v_21 (- (+ (* (- 23) x28) (* 17 x13)) (* 19 ?v_10)))) (let ((?v_91 (f1_2 (+ (* 29 x3) x4 (* 3 ?v_21)) ?v_10))) (let ((?v_105 (+ (- (* (- 16) x4) (* 11 ?v_91)) (* 4 ?v_24)))) (let ((?v_104 (< ?v_105 (- 1)))) (let ((?v_82 (not ?v_104)) (?v_96 (< ?v_14 (- 9))) (?v_256 (< (f1_2 x2 ?v_15) (- 12))) (?v_284 (not (< ?v_14 (- 2)))) (?v_52 (+ (* (- 12) x24) (* 22 x9) (* 7 x12)))) (let ((?v_37 (f0_2 ?v_15 ?v_52))) (let ((?v_166 (< ?v_37 14)) (?v_115 (not ?v_16)) (?v_171 (< x24 (- 24))) (?v_50 (< (f1_1 x7) (- 12))) (?v_27 (< (f0_1 ?v_19) 0)) (?v_237 (< ?v_5 (- 8)))) (let ((?v_77 (not ?v_237)) (?v_60 (< (f1_1 x24) (- 8)))) (let ((?v_129 (not ?v_60)) (?v_41 (< ?v_21 4)) (?v_70 (+ (- (* (- 29) x17) (* 24 ?v_175)) (* 16 ?v_26)))) (let ((?v_46 (< (f1_2 ?v_70 ?v_24) 3))) (let ((?v_120 (not ?v_46)) (?v_34 (= ?v_25 ?v_26))) (let ((?v_134 (not ?v_34)) (?v_235 (- (+ (* (- 22) x28) (* 14 x13)) (* 2 x10)))) (let ((?v_281 (< ?v_235 26)) (?v_63 (< ?v_36 (- 11)))) (let ((?v_137 (not ?v_63)) (?v_142 (< (- (+ (* (- 28) ?v_29) (* 29 x23)) (* 5 x9)) 28)) (?v_195 (< ?v_88 (- 24))) (?v_188 (< x11 (- 17)))) (let ((?v_128 (not ?v_188)) (?v_61 (< ?v_37 (- 26))) (?v_179 (< ?v_39 (- 15)))) (let ((?v_89 (not ?v_179)) (?v_122 (< (f0_2 x16 x26) (- 3)))) (let ((?v_180 (not ?v_122)) (?v_112 (< x25 (- 13))) (?v_55 (< x2 (- 21))) (?v_54 (< ?v_49 (- 9))) (?v_199 (< ?v_52 (- 18)))) (let ((?v_194 (not ?v_199)) (?v_81 (< ?v_4 (- 7)))) (let ((?v_255 (not ?v_81)) (?v_200 (< x8 (- 7))) (?v_229 (< ?v_58 (- 19)))) (let ((?v_322 (not ?v_229)) (?v_64 (< ?v_57 (- 4)))) (let ((?v_117 (not ?v_64)) (?v_87 (not ?v_17)) (?v_168 (< ?v_3 (- 8))) (?v_155 (< x8 (- 4)))) (let ((?v_287 (not ?v_155)) (?v_116 (not ?v_61)) (?v_164 (< x19 (- 5))) (?v_204 (< ?v_39 (- 18)))) (let ((?v_154 (not ?v_204)) (?v_100 (not ?v_41)) (?v_80 (< ?v_65 (- 8))) (?v_293 (< (+ (* (- 17) x20) ?v_67 (* 13 x0)) (- 1)))) (let ((?v_189 (not ?v_293)) (?v_351 (< ?v_95 (- 23))) (?v_133 (< ?v_13 (- 26)))) (let ((?v_106 (not ?v_133)) (?v_157 (= (+ (* (- 2) ?v_69) (* 16 x18) (* 22 ?v_10)) ?v_92))) (let ((?v_232 (not ?v_157)) (?v_206 (< ?v_70 27))) (let ((?v_280 (not ?v_206)) (?v_176 (+ (* (- 10) x4) (* 15 x4) (* 4 x21)))) (let ((?v_219 (< ?v_176 1)) (?v_221 (< ?v_30 (- 23))) (?v_162 (< ?v_73 (- 17)))) (let ((?v_258 (not ?v_162)) (?v_288 (not ?v_80)) (?v_243 (< x14 (- 19)))) (let ((?v_274 (not ?v_243)) (?v_315 (< (f1_1 (+ (* (- 9) x17) (* 8 x18) (* 14 x4))) (- 2)))) (let ((?v_158 (not ?v_315)) (?v_312 (= ?v_91 ?v_92))) (let ((?v_209 (not ?v_312)) (?v_109 (< ?v_14 (- 27))) (?v_383 (< ?v_95 (- 27)))) (let ((?v_233 (not ?v_383)) (?v_338 (< x6 (- 19)))) (let ((?v_356 (not ?v_338)) (?v_251 (not ?v_96)) (?v_146 (< ?v_105 (- 10))) (?v_131 (not ?v_112)) (?v_145 (< ?v_118 (- 13)))) (let ((?v_257 (not ?v_145)) (?v_165 (- (- (* (- 22) x7) (* 9 ?v_5)) (* 25 (+ (* 7 x24) (* 6 x11) (* 27 x19)))))) (let ((?v_124 (= ?v_165 x20))) (let ((?v_261 (not ?v_124)) (?v_197 (= ?v_125 ?v_126))) (let ((?v_382 (not ?v_197)) (?v_139 (not ?v_47)) (?v_238 (< ?v_202 (- 23))) (?v_173 (< ?v_15 (- 23)))) (let ((?v_153 (not ?v_173)) (?v_319 (< ?v_140 (- 16))) (?v_236 (not ?v_144)) (?v_341 (< (f1_1 ?v_52) (- 9)))) (let ((?v_203 (not ?v_341)) (?v_333 (not ?v_149)) (?v_178 (f0_2 x17 ?v_52))) (let ((?v_226 (< ?v_178 20))) (let ((?v_265 (not ?v_226)) (?v_384 (< x17 (- 9)))) (let ((?v_361 (not ?v_384)) (?v_172 (not ?v_109)) (?v_298 (< ?v_70 21))) (let ((?v_371 (not ?v_298)) (?v_277 (not ?v_54)) (?v_260 (< ?v_4 (- 5))) (?v_267 (not ?v_164)) (?v_297 (< ?v_165 (- 10)))) (let ((?v_314 (not ?v_297)) (?v_296 (not ?v_55)) (?v_271 (not ?v_168)) (?v_182 (< ?v_169 (- 7))) (?v_348 (not ?v_171)) (?v_294 (< ?v_176 (- 7)))) (let ((?v_250 (not ?v_294)) (?v_190 (< ?v_178 27)) (?v_283 (not ?v_182)) (?v_327 (not ?v_166))) (let ((?v_198 (not ?v_190)) (?v_217 (< ?v_125 (- 3)))) (let ((?v_269 (not ?v_217)) (?v_248 (< (+ (- (* 10 x14) (* 6 x9)) (* 24 x5)) (- 23)))) (let ((?v_245 (not ?v_248)) (?v_213 (= ?v_212 ?v_52)) (?v_316 (not ?v_142))) (let ((?v_259 (not ?v_213)) (?v_378 (not ?v_219)) (?v_318 (or ?v_172 ?v_220)) (?v_302 (= ?v_234 ?v_235))) (let ((?v_374 (not ?v_302)) (?v_360 (not ?v_50)) (?v_278 (not ?v_27)) (?v_325 (not ?v_260)) (?v_326 (not ?v_146)) (?v_365 (or ?v_158 ?v_305)) (?v_349 (< (- (- (* 28 x19) (* 22 x10)) (* 15 x12)) (- 12)))) (let ((?v_345 (not ?v_349)) (?v_317 (< ?v_52 (- 27)))) (let ((?v_304 (not ?v_317)) (?v_307 (not ?v_238)) (?v_320 (< (+ (- (* 29 x22) (* 27 x1)) (* 28 x3)) (- 10)))) (let ((?v_303 (not ?v_320)) (?v_340 (not ?v_256)) (?v_306 (< (f1_2 x17 ?v_235) 29)) (?v_385 (not ?v_319)) (?v_368 (not ?v_281)) (?v_359 (not ?v_221)) (?v_354 (not ?v_200))) (let ((?v_387 (not ?v_306)) (?v_363 (or ?v_354 ?v_214)) (?v_381 (not ?v_195)) (?v_386 (not ?v_351))) (and (and (and (and (and (and (and (and (and (and (and (and (and (and (and (and (and (and (and (and (and (and (and (and (and (and (and (and (and (and (and (and (and (and (and (and (and (and (and (and (and (and (and (and (and (and (and (and (and (and (and (and (and (and (and (and (and (and (and (and (and (and (and (and (and (and (and (and (and (and (and (and (and (and (and (and (and (and (and (and (and (and (and (and (and (and (and (and (and (and (and (and (and (and (and (and (and (and (and (and (and (and (and (and (and (and (and (and (and (and (and (and (and (and (and (and (and (and (and (and (and (and (and (and (and (and (and (and (and (and (and (and (and (and (and (and (and (and (and (and (and (and (and (and (and (and (and (and (and (and (and (and (and (and (and (and (and (and (and (and (and (and (and (and (and (and (and (and (and (and (and (and (and (and (and (and (and (and (and (and (and (and (and (and (and (and (and (and (and (and (and (and (and (and (and (and (and (and (and (and (and (and (and (and (and (and (and (and (and (and (and (and (and (and (and (and (and (and (and (and (and (and (and (and (and (and (and (and (and (and (and (and (and (and (and (and (and (and (and (and (and (and (and (and (and (and (and (and (and (and (and (and (and (and (and (and (and (and (and (and (and (and (and (and (and (and (and (and (and (and (and (and (and (and (and (and (and (and (and (and (and (and (and (and (and (and (and (and (and (and (and (and (and (and (and (and (and (and (and (and (and (and (and (and (and (and (and (and (and (and (and (and (and (and (and (and (and (and (and (and (and (and (and (and (and (and (and (and (and (and (and (and (and (and (and (and (and (and (and (and (and (and (and (and (and (and (and (and (and (and (and (and (and (and (and (and (and (and (and (and (and (and (and (and (and (and (and (and (and (and (and (and (and (and (and (and (and (and (and (and (and (and (and (and (and (and (and (and (and (and (and (and (and (and (and (and (and (and (and (and (and (and (and (and (and (and (and (and (and (and (and (and (and (and (and (and (and (and (and (and (and (and (and (and (and (and (and (and (and (and (and (and (and (and (and (and (and (and (and (and (and (and (and (and (and (and (and (and (and (and (and (and (and (and (and (and (and (and (and (and (and (and (and (and (and (and (and (and (and (and (and (and (and (and (and (and (and (and (and (and (and (and (and (and (and (and (and (and (and (and (and (and (and (and (and (and (and (and (and (and (and (and (and (and (and (and (and (and (and (and (and (and (and (and (and (and (and (and (and (and (and (and (and (and (and (and (and (and (and (and (and (and (and (and (and (and (and (and (and (and (and (and (and (and (and (and (and (and (and (and (and (and (and (and (and (and (and (and (and (and (and (and (and (and (and (and (and (and (and (and (and (and (and (and (and (and (and (and (and (and (and (and (and (and (and (and (and (and (and (and (and (and (and (and (and (and (and (and (and (and (and (and (and (and (and (and (and (and (and (and (and (and (and (and (and (and (and (and (and (and (and (and (and (and (and (and (and (and (and (and (and (and (and (and (and (and (and (and (and (and (and (and (and (and (and (and (and (and (and (and (and (and (and (and (and (and (and (and (and (and (and (and (and (and (and (and (and (and (and (and (and (and (and (and (and (and (and (and (and (and (and (and (and (and (and (and (and (and (and (and (and (and (and (and (and (and (and (and (and (and (and (and (and (and (and (and (and (and (and (and (and (and (and (and (and (and (and (and (and (and (and (and (and (and (and (and (and (and (and (and (and (and (and (and (and (and (and (and (and (and (and (and (and (and (and (and (and (and (and (or (or ?v_9 ?v_144) ?v_159) (or (or ?v_56 ?v_0) P12)) (or (or ?v_266 ?v_17) ?v_83)) (or (or P11 ?v_7) ?v_31)) (or (or ?v_23 ?v_47) ?v_16)) (or (or ?v_373 ?v_357) ?v_66)) (or (or P25 ?v_8) ?v_18)) (or (or ?v_242 P4) ?v_149)) (or (or ?v_130 ?v_44) ?v_167)) (or (or P5 ?v_7) ?v_11)) (or (or ?v_8 ?v_76) ?v_170)) (or (or P12 ?v_20) P7)) (or (or ?v_82 ?v_225) ?v_192)) (or (or ?v_96 ?v_123) ?v_48)) (or (or ?v_256 ?v_98) ?v_284)) (or (or ?v_166 P21) ?v_115)) (or (or ?v_17 ?v_18) ?v_40)) (or (or ?v_171 ?v_50) ?v_85)) (or (or ?v_136 ?v_27) ?v_77)) (or (or ?v_38 ?v_129) ?v_163)) (or (or ?v_20 P5) ?v_41)) (or (or ?v_135 ?v_22) ?v_210)) (or (or ?v_187 P11) ?v_99)) (or (or ?v_120 ?v_134) ?v_27)) (or (or ?v_281 ?v_102) ?v_137)) (or (or ?v_142 ?v_279) ?v_31)) (or (or ?v_195 ?v_42) ?v_33)) (or (or ?v_34 ?v_147) ?v_358)) (or (or ?v_128 ?v_51) P10)) (or (or ?v_61 ?v_160) ?v_38)) (or (or ?v_224 P16) ?v_89)) (or (or ?v_40 ?v_41) ?v_43)) (or (or ?v_339 ?v_180) P5)) (or (or ?v_43 ?v_44) P11)) (or (or ?v_108 P16) ?v_112)) (or (or ?v_46 ?v_9) ?v_47)) (or (or P8 ?v_48) ?v_31)) (or (or ?v_55 ?v_54) ?v_301)) (or (or ?v_0 P1) ?v_152)) (or (or ?v_364 ?v_177) P9)) (or (or ?v_50 ?v_74) ?v_194)) (or (or ?v_285 ?v_54) ?v_255)) (or (or ?v_79 ?v_86) P22)) (or (or P2 ?v_200) ?v_322)) (or (or ?v_55 ?v_56) P8)) (or (or ?v_117 ?v_87) ?v_103)) (or (or P2 ?v_59) ?v_168)) (or (or ?v_286 ?v_59) ?v_78)) (or (or ?v_287 ?v_151) ?v_110)) (or (or ?v_60 ?v_27) ?v_18)) (or (or ?v_116 ?v_62) ?v_107)) (or (or ?v_164 ?v_154) ?v_63)) (or (or ?v_227 ?v_64) ?v_100)) (or (or ?v_201 ?v_40) ?v_80)) (or (or ?v_66 ?v_189) ?v_334)) (or (or P6 ?v_68) ?v_185)) (or (or P13 ?v_351) ?v_106)) (or (or ?v_241 ?v_232) P5)) (or (or ?v_280 P2) ?v_219)) (or (or ?v_216 ?v_0) ?v_221)) (or (or ?v_258 ?v_74) ?v_244)) (or (or ?v_75 ?v_76) P18)) (or (or ?v_77 ?v_78) ?v_79)) (or (or ?v_214 ?v_288) ?v_114)) (or (or ?v_59 ?v_274) ?v_81)) (or (or ?v_174 ?v_191) P29)) (or (or ?v_82 ?v_27) ?v_83)) (or (or ?v_84 ?v_222) ?v_158)) (or (or ?v_86 ?v_87) ?v_50)) (or (or ?v_291 ?v_127) ?v_89)) (or (or ?v_90 ?v_209) P26)) (or (or ?v_186 ?v_46) ?v_223)) (or (or ?v_94 ?v_109) ?v_44)) (or (or ?v_233 ?v_150) ?v_38)) (or (or ?v_356 ?v_332) ?v_251)) (or (or ?v_97 ?v_113) ?v_99)) (or (or ?v_100 ?v_156) ?v_101)) (or (or ?v_102 ?v_205) ?v_104)) (or (or ?v_146 ?v_106) ?v_181)) (or (or ?v_108 ?v_109) ?v_110)) (or (or ?v_272 P14) P7)) (or (or ?v_131 ?v_113) ?v_41)) (or (or P11 ?v_114) ?v_268)) (or (or ?v_161 ?v_115) ?v_116)) (or (or ?v_117 ?v_257) ?v_81)) (or (or ?v_119 ?v_120) ?v_121)) (or (or ?v_141 ?v_62) P6)) (or (or ?v_122 ?v_215) ?v_261)) (or (or ?v_123 ?v_124) ?v_382)) (or (or ?v_127 ?v_270) ?v_330)) (or (or ?v_42 ?v_87) ?v_128)) (or (or ?v_139 ?v_129) ?v_130)) (or (or ?v_116 ?v_131) P24)) (or (or ?v_51 ?v_238) ?v_132)) (or (or ?v_133 ?v_134) ?v_135)) (or (or ?v_353 P29) ?v_109)) (or (or ?v_137 ?v_153) ?v_20)) (or (or ?v_138 ?v_139) ?v_319)) (or (or P5 P23) P0)) (or (or ?v_47 ?v_148) ?v_101)) (or (or ?v_119 P10) ?v_137)) (or (or ?v_141 ?v_7) ?v_142)) (or (or ?v_208 P11) ?v_143)) (or (or ?v_236 ?v_143) ?v_203)) (or (or ?v_246 ?v_145) ?v_146)) (or (or ?v_107 ?v_147) P18)) (or (or ?v_76 ?v_145) ?v_148)) (or (or ?v_81 ?v_218) ?v_333)) (or (or ?v_265 ?v_150) ?v_361)) (or (or P13 P3) ?v_172)) (or (or ?v_151 P24) ?v_152)) (or (or ?v_94 ?v_153) ?v_38)) (or (or ?v_102 ?v_154) ?v_62)) (or (or ?v_155 P7) ?v_156)) (or (or ?v_139 ?v_371) ?v_157)) (or (or ?v_158 P22) ?v_159)) (or (or ?v_277 ?v_160) ?v_18)) (or (or ?v_161 ?v_23) ?v_144)) (or (or ?v_260 ?v_162) ?v_262)) (or (or ?v_136 ?v_101) ?v_267)) (or (or ?v_79 ?v_314) ?v_7)) (or (or ?v_104 ?v_166) ?v_376)) (or (or P10 ?v_164) ?v_296)) (or (or ?v_271 ?v_182) ?v_151)) (or (or ?v_170 ?v_348) ?v_172)) (or (or ?v_61 ?v_168) P3)) (or (or ?v_40 ?v_142) ?v_173)) (or (or ?v_174 ?v_184) ?v_90)) (or (or ?v_23 ?v_150) ?v_239)) (or (or ?v_250 ?v_253) ?v_85)) (or (or ?v_101 ?v_177) ?v_145)) (or (or P27 ?v_183) ?v_324)) (or (or ?v_190 P28) ?v_179)) (or (or ?v_17 ?v_180) ?v_181)) (or (or ?v_337 ?v_127) ?v_283)) (or (or ?v_183 ?v_115) ?v_299)) (or (or ?v_150 ?v_185) ?v_186)) (or (or ?v_327 P26) P4)) (or (or ?v_187 ?v_124) ?v_188)) (or (or ?v_189 ?v_113) ?v_108)) (or (or ?v_198 ?v_252) ?v_191)) (or (or ?v_192 ?v_60) ?v_84)) (or (or ?v_38 ?v_193) ?v_61)) (or (or ?v_145 ?v_194) P5)) (or (or ?v_40 ?v_195) ?v_139)) (or (or ?v_76 ?v_168) ?v_196)) (or (or ?v_196 ?v_197) ?v_62)) (or (or ?v_198 ?v_171) ?v_199)) (or (or ?v_200 ?v_201) ?v_54)) (or (or ?v_9 ?v_228) ?v_203)) (or (or ?v_264 ?v_220) ?v_160)) (or (or ?v_160 ?v_62) ?v_161)) (or (or ?v_204 ?v_289) ?v_56)) (or (or ?v_145 P25) ?v_269)) (or (or ?v_245 ?v_205) ?v_177)) (or (or ?v_206 ?v_82) ?v_128)) (or (or ?v_207 ?v_329) ?v_209)) (or (or ?v_113 P21) ?v_350)) (or (or ?v_211 ?v_179) ?v_177)) (or (or ?v_27 ?v_187) ?v_213)) (or (or ?v_158 ?v_316) ?v_131)) (or (or ?v_259 ?v_63) ?v_134)) (or (or ?v_187 ?v_185) ?v_214)) (or (or ?v_153 ?v_138) ?v_81)) (or (or P21 P8) P18)) (or (or ?v_336 P8) ?v_198)) (or (or ?v_362 P2) ?v_99)) (or (or ?v_215 ?v_102) ?v_116)) (or (or P11 ?v_230) ?v_190)) (or (or ?v_89 ?v_210) ?v_216)) (or (or ?v_20 ?v_0) P15)) (or (or ?v_217 ?v_218) ?v_378)) (or ?v_318 P18)) (or (or ?v_186 ?v_42) ?v_221)) (or (or ?v_331 ?v_222) ?v_197)) (or (or ?v_223 ?v_224) ?v_138)) (or (or ?v_146 ?v_225) ?v_154)) (or (or ?v_181 P11) ?v_83)) (or (or P16 ?v_151) P9)) (or (or ?v_23 ?v_226) ?v_227)) (or (or ?v_380 ?v_186) ?v_147)) (or (or ?v_229 ?v_295) ?v_171)) (or (or ?v_66 ?v_98) ?v_231)) (or (or ?v_116 ?v_190) ?v_120)) (or (or ?v_163 ?v_51) P11)) (or (or ?v_232 ?v_233) ?v_123)) (or (or ?v_31 ?v_374) ?v_192)) (or (or ?v_236 ?v_237) ?v_109)) (or (or ?v_99 ?v_203) ?v_147)) (or (or ?v_164 ?v_238) ?v_352)) (or (or ?v_239 ?v_227) ?v_240)) (or (or ?v_241 ?v_96) ?v_17)) (or (or ?v_242 ?v_254) ?v_208)) (or (or ?v_243 ?v_204) ?v_141)) (or (or P4 ?v_55) ?v_56)) (or (or ?v_244 ?v_245) ?v_115)) (or (or P10 ?v_290) ?v_76)) (or (or ?v_27 ?v_128) ?v_17)) (or (or ?v_181 ?v_246) ?v_40)) (or (or ?v_123 ?v_247) ?v_160)) (or (or ?v_248 ?v_134) ?v_249)) (or (or ?v_133 ?v_193) ?v_173)) (or (or ?v_250 ?v_237) ?v_55)) (or (or ?v_251 ?v_252) ?v_119)) (or (or ?v_224 ?v_147) ?v_209)) (or (or ?v_253 ?v_94) ?v_33)) (or (or ?v_254 ?v_48) ?v_360)) (or (or ?v_255 ?v_139) ?v_135)) (or (or ?v_252 P18) ?v_256)) (or (or ?v_76 ?v_100) ?v_233)) (or (or ?v_238 ?v_257) ?v_121)) (or (or ?v_214 ?v_41) ?v_258)) (or (or P6 ?v_278) P5)) (or (or ?v_259 ?v_249) ?v_66)) (or (or ?v_27 P14) ?v_325)) (or (or ?v_56 ?v_261) ?v_262)) (or (or ?v_16 ?v_108) ?v_17)) (or (or ?v_185 P24) ?v_263)) (or (or ?v_158 P11) ?v_171)) (or (or ?v_100 ?v_164) ?v_117)) (or (or ?v_217 ?v_188) ?v_168)) (or (or ?v_276 ?v_237) ?v_238)) (or (or ?v_265 ?v_266) ?v_46)) (or (or ?v_196 P22) ?v_75)) (or (or ?v_182 ?v_267) ?v_194)) (or (or ?v_268 ?v_114) ?v_269)) (or (or ?v_270 ?v_143) ?v_48)) (or (or ?v_150 ?v_271) ?v_154)) (or (or ?v_223 ?v_129) ?v_272)) (or (or ?v_238 ?v_282) ?v_108)) (or (or ?v_27 ?v_47) ?v_148)) (or (or ?v_273 ?v_11) ?v_87)) (or (or ?v_269 ?v_254) ?v_241)) (or (or ?v_182 ?v_86) ?v_274)) (or (or ?v_275 ?v_156) P3)) (or (or ?v_148 ?v_200) ?v_308)) (or (or ?v_198 ?v_276) ?v_139)) (or (or ?v_277 ?v_278) ?v_109)) (or (or ?v_347 ?v_62) ?v_279)) (or (or ?v_280 ?v_326) ?v_268)) (or (or ?v_204 ?v_281) ?v_282)) (or ?v_365 ?v_283)) (or (or ?v_179 ?v_345) ?v_60)) (or (or ?v_210 ?v_369) ?v_249)) (or (or ?v_128 ?v_123) ?v_184)) (or (or ?v_148 ?v_276) ?v_149)) (or (or ?v_197 ?v_258) ?v_54)) (or (or ?v_193 ?v_284) ?v_285)) (or (or P27 ?v_197) ?v_151)) (or (or P28 P29) ?v_286)) (or (or ?v_239 ?v_101) ?v_157)) (or (or ?v_163 ?v_81) P18)) (or (or ?v_287 ?v_144) ?v_239)) (or (or ?v_254 ?v_304) ?v_288)) (or (or P14 ?v_107) P9)) (or (or ?v_289 ?v_290) ?v_180)) (or (or ?v_291 ?v_232) ?v_307)) (or (or ?v_300 ?v_292) ?v_42)) (or (or ?v_278 ?v_155) ?v_33)) (or (or ?v_142 ?v_231) ?v_167)) (or (or ?v_293 ?v_127) ?v_275)) (or (or ?v_303 ?v_174) ?v_254)) (or (or ?v_294 ?v_292) ?v_87)) (or (or ?v_229 P18) ?v_172)) (or (or ?v_85 ?v_261) ?v_219)) (or (or ?v_55 ?v_340) P25)) (or (or ?v_170 ?v_272) ?v_80)) (or (or ?v_230 ?v_149) ?v_122)) (or (or ?v_182 ?v_167) ?v_295)) (or (or ?v_172 ?v_214) P26)) (or (or ?v_189 P26) ?v_290)) (or (or ?v_127 ?v_78) ?v_278)) (or (or ?v_80 P19) ?v_157)) (or (or ?v_296 ?v_372) ?v_194)) (or (or ?v_46 P18) ?v_297)) (or (or ?v_298 P29) ?v_299)) (or (or ?v_237 ?v_223) ?v_300)) (or (or ?v_113 ?v_301) ?v_302)) (or (or ?v_306 ?v_303) ?v_143)) (or (or ?v_100 ?v_16) ?v_60)) (or (or ?v_172 ?v_0) ?v_153)) (or (or ?v_247 ?v_142) P17)) (or (or ?v_156 ?v_304) ?v_83)) (or (or ?v_305 ?v_133) ?v_304)) (or (or ?v_375 ?v_185) ?v_87)) (or (or ?v_306 ?v_172) P13)) (or (or ?v_168 ?v_124) ?v_307)) (or (or ?v_27 ?v_74) ?v_308)) (or (or ?v_309 P28) ?v_177)) (or (or ?v_224 ?v_236) ?v_270)) (or (or ?v_258 ?v_209) ?v_297)) (or (or ?v_187 ?v_297) ?v_221)) (or (or ?v_310 ?v_261) ?v_242)) (or (or ?v_328 ?v_173) ?v_312)) (or (or ?v_313 ?v_261) ?v_190)) (or (or ?v_97 ?v_261) ?v_43)) (or (or ?v_300 ?v_34) ?v_177)) (or (or ?v_249 ?v_314) P13)) (or (or ?v_315 ?v_34) ?v_316)) (or (or ?v_211 P14) ?v_207)) (or (or ?v_228 ?v_236) ?v_317)) (or (or ?v_287 ?v_80) ?v_172)) (or ?v_318 ?v_284)) (or (or ?v_128 ?v_110) ?v_41)) (or (or ?v_47 ?v_222) ?v_385)) (or (or ?v_68 ?v_138) ?v_150)) (or (or ?v_43 ?v_124) ?v_303)) (or (or ?v_315 ?v_232) ?v_280)) (or (or ?v_320 ?v_208) ?v_131)) (or (or ?v_304 ?v_321) ?v_77)) (or (or ?v_309 ?v_322) P3)) (or (or ?v_323 P11) ?v_142)) (or (or ?v_101 P7) ?v_185)) (or (or ?v_278 ?v_222) ?v_305)) (or (or ?v_77 ?v_181) ?v_300)) (or (or ?v_164 ?v_344) ?v_98)) (or (or ?v_190 ?v_314) ?v_185)) (or (or ?v_206 ?v_189) ?v_20)) (or (or ?v_324 ?v_27) ?v_225)) (or (or ?v_253 ?v_75) ?v_368)) (or (or ?v_321 ?v_63) ?v_314)) (or (or ?v_278 ?v_325) ?v_101)) (or (or P6 ?v_216) ?v_133)) (or (or P8 ?v_150) ?v_237)) (or (or ?v_279 ?v_305) ?v_43)) (or (or P6 ?v_326) ?v_224)) (or (or ?v_290 ?v_87) ?v_313)) (or (or ?v_186 ?v_274) ?v_286)) (or (or ?v_153 ?v_55) ?v_113)) (or (or ?v_327 ?v_66) P7)) (or (or ?v_328 ?v_329) ?v_121)) (or (or P26 P10) ?v_201)) (or (or ?v_166 ?v_130) ?v_198)) (or (or ?v_66 ?v_113) ?v_177)) (or (or ?v_99 ?v_259) ?v_233)) (or (or ?v_255 ?v_282) ?v_285)) (or (or ?v_168 ?v_87) ?v_330)) (or (or ?v_331 ?v_332) ?v_31)) (or (or ?v_120 ?v_333) ?v_302)) (or (or ?v_334 ?v_0) ?v_20)) (or (or ?v_191 P17) ?v_239)) (or (or ?v_335 ?v_23) ?v_68)) (or (or ?v_23 ?v_359) ?v_109)) (or (or ?v_238 ?v_214) ?v_336)) (or (or ?v_195 ?v_278) ?v_172)) (or (or ?v_41 ?v_194) ?v_17)) (or (or ?v_283 ?v_315) ?v_274)) (or (or ?v_189 ?v_337) ?v_267)) (or (or ?v_327 ?v_245) ?v_293)) (or (or ?v_333 ?v_132) ?v_160)) (or (or ?v_155 ?v_214) ?v_241)) (or (or P13 ?v_154) ?v_286)) (or (or ?v_338 ?v_33) ?v_339)) (or (or ?v_264 ?v_340) ?v_341)) (or (or ?v_189 ?v_304) ?v_342)) (or (or ?v_211 ?v_242) ?v_341)) (or (or ?v_280 P29) ?v_312)) (or (or ?v_167 ?v_184) ?v_232)) (or (or ?v_259 ?v_279) ?v_334)) (or (or ?v_208 ?v_66) ?v_343)) (or (or ?v_243 ?v_344) ?v_200)) (or (or ?v_273 ?v_345) P12)) (or (or ?v_109 ?v_346) ?v_136)) (or (or P29 ?v_257) ?v_260)) (or (or ?v_294 ?v_323) ?v_0)) (or (or ?v_347 ?v_366) ?v_20)) (or (or ?v_8 ?v_260) ?v_348)) (or (or ?v_243 ?v_349) ?v_346)) (or (or ?v_320 P8) ?v_280)) (or (or ?v_255 ?v_145) P3)) (or (or ?v_285 ?v_80) P15)) (or (or ?v_276 ?v_43) ?v_44)) (or (or ?v_226 P16) ?v_173)) (or (or ?v_331 P24) ?v_143)) (or (or ?v_269 P6) P22)) (or (or ?v_194 ?v_285) ?v_252)) (or (or ?v_40 ?v_324) ?v_350)) (or (or ?v_135 ?v_86) ?v_204)) (or (or ?v_38 ?v_275) ?v_143)) (or (or ?v_348 ?v_317) P24)) (or (or ?v_351 ?v_119) ?v_196)) (or (or ?v_62 ?v_85) ?v_205)) (or (or ?v_352 ?v_250) ?v_353)) (or (or ?v_347 ?v_227) ?v_354)) (or (or ?v_387 ?v_269) ?v_75)) (or (or ?v_355 ?v_343) ?v_264)) (or (or ?v_321 ?v_120) ?v_232)) (or (or ?v_236 P13) ?v_182)) (or (or ?v_68 ?v_270) ?v_342)) (or (or P8 ?v_186) ?v_262)) (or (or ?v_136 ?v_181) ?v_225)) (or ?v_363 ?v_355)) (or (or ?v_27 ?v_236) ?v_76)) (or (or ?v_247 ?v_156) ?v_239)) (or (or ?v_249 ?v_356) P5)) (or (or ?v_123 ?v_141) ?v_182)) (or (or ?v_266 ?v_204) ?v_315)) (or (or ?v_354 ?v_309) P27)) (or (or ?v_163 ?v_80) P6)) (or (or ?v_356 ?v_152) ?v_187)) (or (or ?v_332 ?v_121) ?v_319)) (or (or ?v_63 ?v_260) ?v_292)) (or (or ?v_251 ?v_220) ?v_297)) (or (or ?v_180 ?v_312) ?v_78)) (or (or ?v_263 P17) ?v_357)) (or (or ?v_282 ?v_350) ?v_121)) (or (or ?v_31 ?v_358) ?v_349)) (or (or ?v_288 ?v_298) ?v_285)) (or (or ?v_63 ?v_101) ?v_254)) (or (or ?v_184 ?v_333) ?v_60)) (or (or P18 ?v_99) ?v_264)) (or (or ?v_157 ?v_324) ?v_77)) (or (or ?v_84 ?v_305) ?v_232)) (or (or ?v_112 ?v_179) ?v_326)) (or (or ?v_323 ?v_172) ?v_349)) (or (or ?v_208 ?v_359) ?v_7)) (or (or ?v_168 ?v_354) ?v_255)) (or (or ?v_313 ?v_381) ?v_207)) (or (or ?v_219 ?v_250) ?v_360)) (or (or ?v_86 ?v_356) ?v_132)) (or (or ?v_276 ?v_132) ?v_266)) (or (or ?v_182 ?v_43) ?v_304)) (or (or ?v_182 ?v_42) ?v_44)) (or (or ?v_136 ?v_211) ?v_214)) (or (or ?v_188 ?v_257) ?v_77)) (or (or ?v_136 ?v_225) ?v_270)) (or (or ?v_251 ?v_361) ?v_316)) (or (or ?v_237 ?v_154) ?v_367)) (or (or ?v_87 ?v_209) P9)) (or (or ?v_200 ?v_219) ?v_335)) (or (or ?v_362 ?v_231) ?v_149)) (or (or ?v_251 ?v_326) ?v_261)) (or (or ?v_352 ?v_213) ?v_149)) (or (or ?v_9 P29) ?v_331)) (or (or P8 ?v_261) ?v_260)) (or (or ?v_174 P15) ?v_314)) (or (or ?v_123 P16) ?v_23)) (or ?v_363 ?v_240)) (or (or ?v_269 ?v_314) ?v_31)) (or (or ?v_286 ?v_133) ?v_141)) (or (or ?v_132 P24) P1)) (or (or ?v_222 ?v_0) ?v_265)) (or (or ?v_17 ?v_223) ?v_183)) (or (or ?v_206 ?v_314) ?v_180)) (or (or ?v_42 ?v_191) ?v_82)) (or (or ?v_117 ?v_354) ?v_309)) (or (or ?v_138 ?v_191) ?v_134)) (or (or ?v_350 P16) ?v_90)) (or (or ?v_295 ?v_220) ?v_364)) (or (or ?v_78 P6) ?v_82)) (or (or ?v_253 ?v_120) ?v_276)) (or (or ?v_180 ?v_307) ?v_236)) (or (or ?v_23 ?v_27) ?v_332)) (or (or ?v_283 ?v_348) ?v_230)) (or (or P7 ?v_89) ?v_158)) (or (or ?v_145 ?v_50) P6)) (or (or ?v_42 ?v_106) ?v_179)) (or (or ?v_268 ?v_243) P14)) (or (or ?v_386 ?v_269) ?v_47)) (or (or ?v_249 ?v_47) P12)) (or (or ?v_233 ?v_149) ?v_359)) (or (or ?v_51 ?v_292) ?v_107)) (or (or ?v_266 ?v_180) ?v_226)) (or (or ?v_170 ?v_68) ?v_336)) (or (or ?v_349 ?v_109) ?v_248)) (or (or ?v_277 ?v_275) ?v_299)) (or ?v_365 ?v_366)) (or (or ?v_166 ?v_86) ?v_207)) (or (or P17 ?v_280) ?v_81)) (or (or ?v_367 ?v_335) ?v_33)) (or (or ?v_236 ?v_333) ?v_94)) (or (or P19 ?v_268) ?v_294)) (or (or P16 ?v_16) ?v_259)) (or (or ?v_194 P22) ?v_304)) (or (or ?v_314 ?v_99) ?v_132)) (or (or ?v_368 ?v_142) P27)) (or (or ?v_51 ?v_11) ?v_354)) (or (or ?v_11 ?v_366) ?v_50)) (or (or P23 ?v_343) ?v_348)) (or (or ?v_306 ?v_48) ?v_324)) (or (or ?v_33 ?v_278) ?v_281)) (or (or ?v_299 ?v_20) ?v_274)) (or (or ?v_173 ?v_130) ?v_145)) (or (or ?v_129 ?v_143) ?v_201)) (or (or ?v_317 ?v_201) P25)) (or (or ?v_237 ?v_103) (not ?v_20))) (or (or ?v_351 ?v_177) ?v_281)) (or (or ?v_266 ?v_138) ?v_275)) (or (or ?v_228 ?v_98) ?v_62)) (or (or ?v_265 ?v_368) ?v_285)) (or (or ?v_167 ?v_104) ?v_268)) (or (or P25 ?v_137) ?v_55)) (or (or ?v_360 ?v_161) ?v_136)) (or (or ?v_16 ?v_158) ?v_22)) (or (or P9 ?v_194) P1)) (or (or ?v_279 ?v_133) P4)) (or (or ?v_244 ?v_369) ?v_195)) (or (or ?v_370 ?v_313) ?v_41)) (or (or ?v_351 ?v_207) ?v_147)) (or (or ?v_226 ?v_239) ?v_331)) (or (or ?v_55 ?v_258) ?v_252)) (or (or P16 ?v_145) ?v_252)) (or (or ?v_11 ?v_371) ?v_82)) (or (or ?v_210 ?v_211) ?v_157)) (or (or ?v_370 ?v_252) ?v_278)) (or (or ?v_121 ?v_356) ?v_80)) (or (or ?v_288 ?v_106) ?v_255)) (or (or ?v_232 ?v_167) ?v_372)) (or (or ?v_186 P27) ?v_206)) (or (or ?v_107 ?v_219) ?v_216)) (or (or ?v_34 ?v_246) ?v_184)) (or (or ?v_63 ?v_263) ?v_300)) (or (or ?v_225 ?v_244) ?v_170)) (or (or ?v_373 ?v_163) ?v_343)) (or (or ?v_203 ?v_322) ?v_280)) (or (or ?v_374 ?v_0) ?v_305)) (or (or ?v_61 ?v_213) ?v_360)) (or (or ?v_217 ?v_375) ?v_216)) (or (or ?v_376 ?v_172) ?v_124)) (or (or P12 ?v_328) ?v_321)) (or (or ?v_116 ?v_154) ?v_218)) (or (or ?v_329 ?v_333) ?v_253)) (or (or ?v_360 ?v_285) ?v_173)) (or (or ?v_312 ?v_185) ?v_377)) (or (or ?v_119 ?v_250) P6)) (or (or ?v_297 ?v_139) ?v_172)) (or (or ?v_131 ?v_213) ?v_374)) (or (or ?v_85 ?v_266) ?v_119)) (or (or ?v_109 ?v_182) ?v_346)) (or (or ?v_256 ?v_103) ?v_154)) (or (or ?v_200 ?v_31) ?v_130)) (or (or ?v_219 ?v_301) ?v_294)) (or (or ?v_375 ?v_99) ?v_378)) (or (or ?v_264 ?v_163) ?v_68)) (or (or ?v_260 ?v_379) ?v_334)) (or (or P7 ?v_274) ?v_182)) (or (or ?v_300 ?v_157) ?v_20)) (or (or ?v_191 ?v_342) ?v_117)) (or (or ?v_229 ?v_218) ?v_310)) (or (or P1 ?v_138) ?v_109)) (or (or ?v_214 ?v_90) ?v_44)) (or (or ?v_269 ?v_132) ?v_231)) (or (or ?v_260 ?v_204) ?v_18)) (or (or ?v_232 ?v_294) ?v_380)) (or (or ?v_18 P29) ?v_130)) (or (or ?v_232 ?v_34) ?v_200)) (or (or ?v_244 ?v_68) ?v_180)) (or (or ?v_106 ?v_227) ?v_321)) (or (or ?v_141 ?v_354) ?v_180)) (or (or ?v_379 ?v_381) ?v_100)) (or (or ?v_306 ?v_373) ?v_238)) (or (or ?v_151 ?v_382) ?v_0)) (or (or ?v_62 ?v_121) ?v_160)) (or (or ?v_274 ?v_373) ?v_186)) (or (or ?v_373 ?v_343) ?v_346)) (or (or ?v_327 ?v_213) ?v_301)) (or (or ?v_157 ?v_97) ?v_215)) (or (or ?v_46 ?v_218) ?v_269)) (or (or ?v_62 ?v_66) ?v_192)) (or (or ?v_323 ?v_259) ?v_90)) (or (or ?v_237 ?v_383) ?v_154)) (or (or ?v_33 ?v_74) P17)) (or (or ?v_188 ?v_245) ?v_43)) (or (or P27 ?v_321) ?v_51)) (or (or ?v_81 ?v_325) ?v_149)) (or (or ?v_377 ?v_316) ?v_163)) (or (or ?v_17 ?v_241) ?v_203)) (or (or ?v_351 ?v_133) ?v_226)) (or (or ?v_379 ?v_240) P17)) (or (or ?v_275 P16) ?v_107)) (or (or ?v_288 ?v_278) ?v_46)) (or (or ?v_153 P25) P27)) (or (or ?v_281 ?v_288) ?v_167)) (or (or ?v_80 ?v_330) ?v_315)) (or (or P8 ?v_9) ?v_378)) (or (or ?v_314 ?v_342) ?v_242)) (or (or P11 ?v_138) ?v_16)) (or (or ?v_223 ?v_350) ?v_174)) (or (or ?v_185 ?v_130) ?v_206)) (or (or ?v_293 ?v_375) ?v_222)) (or (or ?v_354 ?v_245) P19)) (or (or ?v_305 ?v_307) ?v_268)) (or (or ?v_287 ?v_54) ?v_193)) (or (or ?v_384 ?v_383) ?v_152)) (or (or ?v_289 ?v_322) ?v_367)) (or (or ?v_41 ?v_183) ?v_193)) (or (or ?v_16 ?v_256) ?v_168)) (or (or ?v_298 ?v_23) ?v_301)) (or (or ?v_130 ?v_372) ?v_312)) (or (or ?v_63 ?v_148) ?v_129)) (or (or ?v_265 ?v_172) ?v_120)) (or (or P25 P28) ?v_194)) (or (or ?v_361 ?v_210) ?v_106)) (or (or ?v_339 ?v_282) ?v_196)) (or (or ?v_193 ?v_41) ?v_155)) (or (or ?v_341 ?v_384) ?v_302)) (or (or P8 ?v_82) ?v_329)) (or (or ?v_270 ?v_168) P22)) (or (or ?v_201 ?v_104) ?v_260)) (or (or ?v_266 ?v_317) ?v_313)) (or (or ?v_380 ?v_385) ?v_51)) (or (or ?v_152 ?v_83) ?v_127)) (or (or ?v_141 ?v_11) ?v_263)) (or (or ?v_154 ?v_99) ?v_253)) (or (or ?v_86 ?v_316) ?v_285)) (or (or ?v_222 ?v_102) ?v_75)) (or (or ?v_256 ?v_55) ?v_332)) (or (or ?v_232 ?v_375) ?v_154)) (or (or ?v_243 ?v_243) ?v_253)) (or (or ?v_164 ?v_124) ?v_251)) (or (or ?v_267 ?v_258) ?v_146)) (or (or ?v_133 ?v_133) ?v_282)) (or (or ?v_371 ?v_323) ?v_367)) (or (or ?v_55 ?v_226) P27)) (or (or ?v_46 ?v_324) ?v_68)) (or (or ?v_257 ?v_253) ?v_337)) (or (or P15 ?v_68) ?v_198)) (or (or ?v_333 ?v_62) ?v_181)) (or (or ?v_347 ?v_113) ?v_134)) (or (or P29 ?v_185) ?v_50)) (or (or ?v_328 ?v_190) ?v_206)) (or (or ?v_244 ?v_317) ?v_356)) (or (or ?v_193 ?v_254) ?v_89)) (or (or ?v_183 ?v_172) ?v_382)) (or (or ?v_150 ?v_357) ?v_375)) (or (or ?v_241 ?v_247) ?v_280)) (or (or ?v_247 P28) P14)) (or (or P9 ?v_333) ?v_144)) (or (or ?v_296 ?v_260) ?v_343)) (or (or ?v_268 ?v_383) ?v_208)) (or (or ?v_172 ?v_280) ?v_134)) (or (or ?v_116 ?v_156) ?v_370)) (or (or ?v_50 ?v_316) ?v_332)) (or (or ?v_210 ?v_216) ?v_205)) (or (or ?v_325 ?v_204) P19)) (or (or ?v_375 ?v_184) ?v_40)) (or (or ?v_54 ?v_135) ?v_254)) (or (or ?v_132 ?v_240) ?v_133)) (or (or ?v_167 ?v_133) ?v_66)) (or (or ?v_192 ?v_87) ?v_153)) (or (or ?v_102 ?v_192) ?v_215)) (or (or ?v_223 ?v_259) ?v_156)) (or (or ?v_107 ?v_296) ?v_217)) (or (or ?v_87 ?v_227) ?v_205)) (or (or ?v_242 ?v_218) ?v_101)) (or (or ?v_31 ?v_201) ?v_79)) (or (or ?v_343 ?v_372) ?v_97)) (or (or ?v_97 ?v_284) ?v_240)) (or (or P16 ?v_59) ?v_107)) (or (or ?v_246 ?v_216) ?v_134)) (or (or ?v_380 ?v_276) ?v_247)) (or (or ?v_121 ?v_258) ?v_231)) (or (or ?v_233 ?v_266) ?v_90)) (or (or P26 ?v_247) ?v_127)) (or (or ?v_129 ?v_320) ?v_171)) (or (or ?v_179 ?v_145) ?v_96)) (or (or ?v_121 P2) ?v_163)) (or (or ?v_384 ?v_382) ?v_46)) (or (or ?v_145 ?v_207) P29)) (or (or ?v_314 ?v_304) ?v_112)) (or (or ?v_249 ?v_154) ?v_238)) (or (or ?v_76 ?v_317) ?v_241)) (or (or ?v_247 ?v_123) ?v_56)) (or (or ?v_367 ?v_271) ?v_117)) (or (or ?v_198 ?v_377) ?v_261)) (or (or ?v_270 ?v_22) ?v_319)) (or (or ?v_373 ?v_142) ?v_279)) (or (or ?v_290 ?v_350) ?v_360)) (or (or ?v_279 ?v_340) ?v_305)) (or (or ?v_233 ?v_141) P7)) (or (or ?v_240 ?v_241) P28)) (or (or ?v_241 ?v_110) ?v_149)) (or (or ?v_78 ?v_141) ?v_138)) (or (or ?v_357 ?v_38) ?v_306)) (or (or ?v_284 ?v_336) ?v_376)) (or (or ?v_181 ?v_119) ?v_330)) (or (or ?v_47 ?v_101) ?v_308)) (or (or ?v_244 ?v_98) ?v_302)) (or (or ?v_262 ?v_112) ?v_83)) (or (or ?v_130 ?v_277) ?v_60)) (or (or ?v_153 ?v_89) ?v_162)) (or (or ?v_182 ?v_46) ?v_345)) (or (or ?v_68 ?v_155) ?v_141)) (or (or ?v_110 ?v_218) ?v_59)) (or (or ?v_328 ?v_134) ?v_79)) (or (or ?v_211 ?v_290) ?v_23)) (or (or ?v_34 ?v_137) ?v_247)) (or (or ?v_370 P14) ?v_43)) (or (or ?v_150 ?v_34) ?v_305)) (or (or ?v_218 ?v_321) ?v_185)) (or (or ?v_285 ?v_231) P3)) (or (or ?v_210 ?v_381) ?v_201)) (or (or ?v_366 ?v_334) ?v_274)) (or (or ?v_331 P11) ?v_256)) (or (or ?v_324 ?v_269) ?v_59)) (or (or ?v_112 ?v_296) ?v_364)) (or (or ?v_172 ?v_166) ?v_120)) (or (or ?v_298 ?v_284) ?v_100)) (or (or ?v_203 ?v_227) ?v_215)) (or (or ?v_217 ?v_346) ?v_277)) (or (or ?v_198 ?v_275) ?v_306)) (or (or ?v_335 ?v_379) ?v_47)) (or (or ?v_257 ?v_252) ?v_167)) (or (or ?v_242 ?v_170) ?v_63)) (or (or ?v_316 ?v_97) ?v_328)) (or (or ?v_123 ?v_79) P21)) (or (or ?v_54 ?v_364) ?v_41)) (or (or P19 P19) ?v_248)) (or (or ?v_386 ?v_155) ?v_312)) (or (or ?v_62 ?v_219) ?v_75)) (or (or ?v_188 ?v_119) ?v_78)) (or (or ?v_138 ?v_343) ?v_7)) (or (or ?v_320 ?v_255) ?v_11)) (or (or ?v_263 ?v_232) ?v_340)) (or (or ?v_99 ?v_7) ?v_283)) (or (or P20 ?v_332) ?v_294)) (or (or ?v_205 ?v_199) ?v_306)) (or (or P12 ?v_145) ?v_182)) (or (or ?v_180 ?v_122) ?v_255)) (or (or P16 ?v_295) ?v_380)) (or (or ?v_290 ?v_284) ?v_343)) (or (or ?v_375 ?v_89) ?v_199)) (or (or ?v_291 ?v_342) ?v_348)) (or (or ?v_62 ?v_193) ?v_319)) (or (or ?v_151 ?v_151) ?v_11)) (or (or ?v_332 P2) ?v_367)) (or (or ?v_31 ?v_274) ?v_177)) (or (or ?v_302 ?v_59) ?v_382)) (or (or ?v_9 ?v_211) ?v_33)) (or (or ?v_159 ?v_245) ?v_231)) (or (or ?v_252 ?v_9) ?v_334)) (or (or ?v_22 ?v_115) ?v_289)) (or (or ?v_328 ?v_161) ?v_133)) (or (or ?v_372 ?v_295) ?v_383)) (or (or ?v_387 ?v_361) ?v_102)) (or (or ?v_387 ?v_286) ?v_124)) (or (or ?v_123 P14) ?v_382)) (or (or ?v_359 ?v_54) ?v_379)) (or (or ?v_247 ?v_56) P13)) (or (or ?v_313 P16) ?v_206)) (or (or ?v_258 ?v_47) ?v_85)) (or (or ?v_151 ?v_367) ?v_103)) (or (or ?v_54 ?v_325) ?v_190)) (or (or ?v_321 ?v_185) ?v_309)) (or (or ?v_229 ?v_104) ?v_153)) (or (or ?v_384 P17) ?v_185)) (or (or ?v_334 ?v_41) ?v_227)) (or (or ?v_182 ?v_360) ?v_108)) (or (or ?v_8 P12) ?v_159)) (or (or ?v_299 ?v_133) ?v_98)))))))))))))))))))))))))))))))))))))))))))))))))))))))))))))))))))))))))
(check-sat)
(exit)
